100
1000
493
489
486
476
470
468
460
457
455
451
450
449
447
447
445
445
443
442
440
437
432
430
425
424
424
418
415
412
408
408
408
407
404
404
402
400
394
389
389
388
386
384
380
379
373
373
373
367
364
362
362
359
346
343
343
342
332
330
326
320
312
302
298
293
284
283
281
278
276
273
273
272
271
266
259
255
255
245
243
242
240
239
239
233
230
214
209
209
207
205
200
199
195
194
185
184
181
179
177
175
